% demand
num_movements = 24;
loading_factor = [800, 1600, 850, 950, 800, 1650, 900, 1200, 2000, 1700, 1450, 1300, 1400, 800, 1600, 1150, 1400, 1200, 800, 1350, 1500, 1200, 1400, 1550];
pickup_time = [0, 0, 1, 1, 1, 1, 3, 3, 5, 5, 6, 7, 8, 8, 9, 9, 9, 9, 11, 12, 13, 13, 13, 13];
delivery_time = [4, 4, 4, 2, 2, 11, 4, 4, 6, 6, 9, 9, 9, 9, 13, 12, 13, 14, 13, 13, 14, 14, 14, 14];

% transporter definition
total_capacity = 7000;
num_decks = 3;
capacity = [3000, 1000, 3000];

% ways out of decks
num_ways_out = 1;
paths_out = array3d(decks, ways_out, decks, [
% ways out of deck d1
2, 3, 0, 

% ways out of deck d2
3, 0, 0, 

% ways out of deck d3
0, 0, 0,	

]);

